p edge 200 1990
p 1 11
p 1 19
p 1 23
p 1 24
p 1 26
p 1 29
p 1 30
p 1 41
p 1 44
p 1 49
p 1 71
p 1 87
p 1 89
p 1 104
p 1 113
p 1 122
p 1 125
p 1 139
p 1 140
p 1 143
p 1 149
p 1 161
p 1 176
p 1 188
p 1 199
p 2 5
p 2 13
p 2 16
p 2 19
p 2 36
p 2 45
p 2 69
p 2 71
p 2 73
p 2 87
p 2 94
p 2 102
p 2 104
p 2 112
p 2 130
p 2 138
p 2 174
p 2 197
p 3 18
p 3 36
p 3 38
p 3 44
p 3 49
p 3 65
p 3 76
p 3 94
p 3 100
p 3 105
p 3 106
p 3 111
p 3 136
p 3 137
p 3 138
p 3 145
p 3 165
p 3 169
p 3 183
p 3 184
p 3 200
p 4 7
p 4 10
p 4 26
p 4 34
p 4 37
p 4 40
p 4 58
p 4 63
p 4 65
p 4 72
p 4 106
p 4 110
p 4 123
p 4 131
p 4 139
p 4 169
p 4 172
p 4 173
p 4 189
p 4 191
p 5 12
p 5 25
p 5 34
p 5 41
p 5 50
p 5 53
p 5 57
p 5 70
p 5 93
p 5 100
p 5 102
p 5 125
p 5 142
p 5 151
p 5 167
p 5 169
p 5 170
p 5 172
p 5 181
p 5 193
p 6 38
p 6 57
p 6 61
p 6 65
p 6 74
p 6 78
p 6 89
p 6 95
p 6 104
p 6 105
p 6 111
p 6 117
p 6 136
p 6 144
p 6 148
p 6 169
p 6 185
p 6 195
p 7 8
p 7 16
p 7 48
p 7 57
p 7 69
p 7 75
p 7 87
p 7 90
p 7 92
p 7 133
p 7 142
p 7 153
p 7 168
p 7 170
p 7 171
p 7 172
p 7 175
p 7 185
p 7 186
p 7 197
p 8 10
p 8 13
p 8 15
p 8 24
p 8 31
p 8 36
p 8 38
p 8 46
p 8 56
p 8 59
p 8 64
p 8 71
p 8 81
p 8 85
p 8 98
p 8 99
p 8 103
p 8 106
p 8 108
p 8 128
p 8 129
p 8 135
p 8 138
p 8 139
p 8 140
p 8 149
p 8 157
p 8 161
p 8 171
p 8 176
p 8 187
p 8 193
p 9 13
p 9 16
p 9 31
p 9 32
p 9 53
p 9 94
p 9 102
p 9 105
p 9 110
p 9 123
p 9 133
p 9 136
p 9 162
p 9 179
p 9 180
p 9 183
p 9 192
p 9 196
p 9 198
p 9 199
p 10 27
p 10 32
p 10 45
p 10 50
p 10 67
p 10 68
p 10 74
p 10 109
p 10 156
p 10 184
p 10 186
p 10 194
p 10 198
p 11 12
p 11 26
p 11 39
p 11 49
p 11 60
p 11 62
p 11 70
p 11 76
p 11 79
p 11 92
p 11 100
p 11 127
p 11 137
p 11 143
p 11 145
p 11 159
p 12 15
p 12 18
p 12 23
p 12 24
p 12 44
p 12 64
p 12 71
p 12 85
p 12 87
p 12 92
p 12 102
p 12 103
p 12 108
p 12 126
p 12 128
p 12 130
p 12 134
p 12 148
p 12 152
p 12 155
p 12 157
p 12 158
p 12 159
p 12 180
p 12 189
p 12 196
p 12 199
p 13 19
p 13 27
p 13 33
p 13 41
p 13 88
p 13 89
p 13 109
p 13 120
p 13 128
p 13 133
p 13 151
p 13 156
p 13 159
p 13 172
p 13 200
p 14 19
p 14 36
p 14 38
p 14 46
p 14 59
p 14 71
p 14 72
p 14 75
p 14 84
p 14 91
p 14 98
p 14 109
p 14 110
p 14 114
p 14 118
p 14 121
p 14 124
p 14 127
p 14 130
p 14 135
p 14 141
p 14 149
p 14 163
p 14 165
p 14 196
p 15 38
p 15 50
p 15 54
p 15 65
p 15 67
p 15 69
p 15 97
p 15 99
p 15 111
p 15 116
p 15 145
p 15 170
p 15 187
p 15 194
p 16 25
p 16 34
p 16 35
p 16 50
p 16 57
p 16 73
p 16 78
p 16 80
p 16 87
p 16 127
p 16 154
p 16 156
p 16 170
p 16 185
p 17 23
p 17 24
p 17 46
p 17 50
p 17 59
p 17 62
p 17 64
p 17 70
p 17 79
p 17 93
p 17 94
p 17 104
p 17 114
p 17 138
p 17 188
p 17 189
p 18 68
p 18 105
p 18 115
p 18 122
p 18 125
p 18 135
p 18 149
p 18 151
p 18 167
p 18 196
p 19 22
p 19 27
p 19 33
p 19 45
p 19 51
p 19 52
p 19 68
p 19 89
p 19 92
p 19 95
p 19 97
p 19 116
p 19 128
p 19 147
p 19 177
p 20 29
p 20 33
p 20 76
p 20 79
p 20 84
p 20 98
p 20 108
p 20 110
p 20 121
p 20 123
p 20 139
p 20 141
p 20 153
p 20 157
p 20 161
p 20 168
p 20 180
p 20 181
p 21 48
p 21 67
p 21 72
p 21 94
p 21 98
p 21 101
p 21 104
p 21 112
p 21 113
p 21 129
p 21 141
p 21 144
p 21 154
p 21 156
p 21 157
p 21 184
p 21 193
p 21 196
p 22 24
p 22 26
p 22 29
p 22 71
p 22 74
p 22 79
p 22 91
p 22 96
p 22 105
p 22 111
p 22 115
p 22 117
p 22 121
p 22 126
p 22 129
p 22 149
p 22 177
p 22 178
p 23 27
p 23 48
p 23 50
p 23 54
p 23 60
p 23 67
p 23 77
p 23 83
p 23 88
p 23 90
p 23 91
p 23 94
p 23 107
p 23 154
p 23 183
p 23 187
p 23 194
p 23 197
p 23 198
p 24 25
p 24 50
p 24 53
p 24 56
p 24 57
p 24 63
p 24 70
p 24 77
p 24 81
p 24 88
p 24 117
p 24 136
p 24 151
p 24 153
p 24 159
p 24 186
p 24 192
p 25 26
p 25 27
p 25 113
p 25 124
p 25 132
p 25 146
p 25 149
p 25 170
p 25 180
p 25 182
p 26 35
p 26 45
p 26 49
p 26 63
p 26 67
p 26 73
p 26 76
p 26 77
p 26 79
p 26 83
p 26 88
p 26 107
p 26 122
p 26 125
p 26 137
p 26 153
p 26 178
p 26 181
p 26 182
p 27 29
p 27 46
p 27 59
p 27 121
p 27 123
p 27 130
p 27 146
p 27 152
p 27 157
p 27 165
p 27 170
p 27 182
p 27 185
p 27 191
p 28 31
p 28 40
p 28 47
p 28 55
p 28 65
p 28 79
p 28 91
p 28 97
p 28 105
p 28 121
p 28 129
p 28 131
p 28 139
p 28 144
p 28 147
p 28 150
p 28 151
p 28 164
p 28 173
p 28 183
p 28 184
p 29 50
p 29 70
p 29 78
p 29 81
p 29 88
p 29 93
p 29 96
p 29 99
p 29 107
p 29 119
p 29 134
p 29 146
p 29 161
p 29 168
p 29 175
p 30 51
p 30 97
p 30 110
p 30 118
p 30 127
p 30 142
p 30 143
p 30 154
p 30 156
p 30 158
p 30 172
p 30 189
p 30 198
p 30 200
p 31 41
p 31 64
p 31 68
p 31 78
p 31 95
p 31 100
p 31 143
p 31 174
p 31 190
p 31 192
p 31 199
p 32 41
p 32 50
p 32 63
p 32 74
p 32 80
p 32 83
p 32 88
p 32 96
p 32 120
p 32 145
p 32 146
p 32 153
p 32 154
p 32 164
p 32 167
p 32 184
p 32 186
p 33 44
p 33 64
p 33 66
p 33 85
p 33 102
p 33 105
p 33 121
p 33 141
p 33 148
p 33 150
p 33 153
p 33 160
p 33 168
p 33 181
p 33 185
p 33 199
p 34 56
p 34 58
p 34 63
p 34 98
p 34 103
p 34 112
p 34 124
p 34 130
p 34 150
p 34 172
p 34 173
p 34 174
p 34 179
p 35 39
p 35 42
p 35 54
p 35 60
p 35 71
p 35 72
p 35 89
p 35 94
p 35 102
p 35 104
p 35 108
p 35 111
p 35 114
p 35 130
p 35 139
p 35 148
p 35 152
p 35 165
p 35 169
p 35 176
p 35 191
p 36 39
p 36 42
p 36 58
p 36 68
p 36 78
p 36 82
p 36 85
p 36 99
p 36 131
p 36 146
p 36 147
p 36 154
p 36 159
p 36 160
p 36 163
p 36 168
p 36 182
p 36 187
p 36 190
p 36 192
p 37 53
p 37 54
p 37 59
p 37 62
p 37 75
p 37 81
p 37 82
p 37 90
p 37 99
p 37 107
p 37 125
p 37 133
p 37 140
p 37 146
p 37 163
p 37 167
p 37 179
p 37 186
p 37 190
p 38 41
p 38 48
p 38 61
p 38 62
p 38 65
p 38 67
p 38 80
p 38 111
p 38 153
p 38 158
p 38 159
p 38 198
p 39 40
p 39 42
p 39 47
p 39 54
p 39 60
p 39 64
p 39 87
p 39 102
p 39 104
p 39 106
p 39 112
p 39 118
p 39 124
p 39 131
p 39 132
p 39 136
p 39 176
p 39 179
p 39 184
p 39 195
p 39 199
p 40 41
p 40 45
p 40 69
p 40 72
p 40 82
p 40 83
p 40 99
p 40 107
p 40 112
p 40 114
p 40 115
p 40 116
p 40 123
p 40 125
p 40 154
p 40 155
p 40 168
p 40 178
p 40 182
p 40 200
p 41 46
p 41 55
p 41 56
p 41 66
p 41 74
p 41 76
p 41 84
p 41 87
p 41 103
p 41 104
p 41 108
p 41 111
p 41 122
p 41 125
p 41 130
p 41 143
p 41 144
p 41 174
p 42 54
p 42 60
p 42 71
p 42 79
p 42 91
p 42 94
p 42 117
p 42 119
p 42 129
p 42 169
p 42 173
p 42 176
p 42 179
p 42 185
p 42 199
p 43 44
p 43 52
p 43 56
p 43 71
p 43 86
p 43 118
p 43 120
p 43 126
p 43 128
p 43 129
p 43 148
p 43 160
p 43 162
p 43 165
p 43 166
p 43 175
p 43 189
p 44 53
p 44 54
p 44 71
p 44 81
p 44 83
p 44 95
p 44 97
p 44 109
p 44 116
p 44 122
p 44 130
p 44 146
p 44 164
p 44 167
p 44 171
p 44 172
p 44 176
p 44 182
p 44 200
p 45 56
p 45 69
p 45 73
p 45 74
p 45 89
p 45 103
p 45 108
p 45 110
p 45 123
p 45 132
p 45 152
p 45 166
p 45 197
p 46 52
p 46 73
p 46 95
p 46 96
p 46 100
p 46 113
p 46 115
p 46 122
p 46 129
p 46 146
p 46 173
p 46 186
p 46 187
p 47 52
p 47 62
p 47 69
p 47 104
p 47 106
p 47 125
p 47 127
p 47 133
p 47 137
p 47 163
p 47 167
p 47 171
p 47 178
p 47 181
p 47 187
p 47 191
p 48 55
p 48 67
p 48 110
p 48 114
p 48 119
p 48 121
p 48 132
p 48 138
p 48 140
p 48 154
p 48 156
p 48 160
p 48 173
p 48 179
p 48 193
p 48 196
p 49 53
p 49 57
p 49 76
p 49 79
p 49 82
p 49 115
p 49 116
p 49 122
p 49 127
p 49 155
p 49 168
p 49 175
p 49 182
p 50 59
p 50 62
p 50 70
p 50 72
p 50 93
p 50 106
p 50 112
p 50 141
p 50 179
p 50 183
p 51 80
p 51 89
p 51 90
p 51 102
p 51 107
p 51 108
p 51 112
p 51 117
p 51 118
p 51 139
p 51 144
p 51 160
p 51 161
p 51 179
p 51 194
p 52 55
p 52 71
p 52 74
p 52 85
p 52 86
p 52 89
p 52 94
p 52 98
p 52 101
p 52 102
p 52 120
p 52 126
p 52 135
p 52 149
p 52 175
p 52 176
p 52 188
p 53 66
p 53 72
p 53 87
p 53 94
p 53 98
p 53 108
p 53 110
p 53 121
p 53 133
p 53 179
p 53 183
p 53 192
p 53 198
p 54 60
p 54 74
p 54 85
p 54 105
p 54 121
p 54 123
p 54 126
p 54 136
p 54 141
p 54 149
p 54 179
p 54 183
p 54 188
p 54 199
p 55 101
p 55 120
p 55 121
p 55 137
p 55 144
p 55 146
p 55 166
p 55 168
p 55 192
p 56 60
p 56 63
p 56 77
p 56 80
p 56 81
p 56 116
p 56 117
p 56 133
p 56 136
p 56 146
p 56 151
p 56 158
p 56 159
p 56 177
p 56 197
p 57 61
p 57 78
p 57 95
p 57 102
p 57 112
p 57 129
p 57 144
p 57 157
p 57 169
p 57 176
p 57 199
p 58 63
p 58 64
p 58 65
p 58 103
p 58 111
p 58 118
p 58 121
p 58 128
p 58 131
p 58 132
p 58 134
p 58 138
p 58 140
p 58 172
p 58 191
p 58 193
p 59 60
p 59 63
p 59 93
p 59 95
p 59 127
p 59 137
p 59 140
p 59 142
p 59 143
p 59 156
p 59 172
p 59 179
p 59 181
p 59 182
p 59 186
p 60 66
p 60 84
p 60 85
p 60 108
p 60 110
p 60 118
p 60 123
p 60 129
p 60 162
p 60 169
p 60 174
p 60 179
p 60 183
p 60 184
p 60 185
p 60 193
p 61 64
p 61 78
p 61 95
p 61 117
p 61 118
p 61 123
p 61 124
p 61 131
p 61 135
p 61 136
p 61 139
p 61 140
p 61 149
p 61 150
p 61 173
p 61 174
p 61 188
p 61 196
p 62 65
p 62 70
p 62 84
p 62 89
p 62 93
p 62 102
p 62 121
p 62 123
p 62 126
p 62 132
p 62 138
p 62 139
p 62 148
p 62 150
p 62 157
p 62 166
p 62 173
p 62 195
p 63 71
p 63 89
p 63 91
p 63 98
p 63 102
p 63 104
p 63 105
p 63 112
p 63 135
p 63 169
p 63 172
p 63 188
p 63 189
p 63 195
p 64 78
p 64 95
p 64 107
p 64 120
p 64 146
p 64 151
p 64 163
p 64 167
p 64 174
p 64 190
p 64 192
p 64 199
p 65 73
p 65 78
p 65 90
p 65 92
p 65 109
p 65 111
p 65 145
p 65 154
p 65 156
p 65 158
p 65 200
p 66 69
p 66 84
p 66 100
p 66 126
p 66 164
p 66 165
p 66 181
p 66 192
p 66 200
p 67 71
p 67 72
p 67 76
p 67 79
p 67 104
p 67 106
p 67 110
p 67 121
p 67 129
p 67 134
p 67 135
p 67 136
p 67 138
p 67 139
p 67 149
p 67 154
p 67 156
p 67 161
p 67 174
p 68 77
p 68 82
p 68 98
p 68 108
p 68 114
p 68 123
p 68 167
p 68 169
p 68 190
p 69 73
p 69 85
p 69 87
p 69 102
p 69 111
p 69 113
p 69 130
p 69 131
p 69 136
p 69 144
p 69 148
p 69 157
p 69 174
p 69 195
p 69 197
p 70 74
p 70 87
p 70 89
p 70 93
p 70 101
p 70 121
p 70 148
p 70 150
p 70 162
p 70 189
p 70 193
p 70 195
p 71 77
p 71 115
p 71 116
p 71 120
p 71 130
p 71 133
p 71 146
p 71 151
p 71 158
p 71 170
p 71 176
p 71 178
p 71 197
p 72 81
p 72 82
p 72 86
p 72 100
p 72 112
p 72 114
p 72 115
p 72 122
p 72 123
p 72 146
p 72 153
p 72 156
p 72 164
p 72 171
p 72 172
p 72 192
p 72 197
p 73 79
p 73 98
p 73 105
p 73 106
p 73 111
p 73 112
p 73 113
p 73 117
p 73 124
p 73 138
p 73 188
p 73 189
p 73 197
p 74 92
p 74 99
p 74 125
p 74 137
p 74 151
p 74 181
p 74 184
p 74 187
p 75 79
p 75 91
p 75 108
p 75 109
p 75 110
p 75 112
p 75 127
p 75 134
p 75 139
p 75 141
p 75 163
p 75 179
p 75 184
p 75 185
p 75 199
p 76 79
p 76 93
p 76 153
p 76 168
p 76 178
p 76 181
p 77 82
p 77 87
p 77 89
p 77 105
p 77 113
p 77 132
p 77 150
p 77 166
p 77 167
p 77 169
p 77 174
p 77 190
p 77 195
p 78 95
p 78 106
p 78 123
p 78 129
p 78 140
p 78 144
p 78 191
p 79 81
p 79 83
p 79 97
p 79 116
p 79 142
p 79 187
p 79 198
p 80 90
p 80 98
p 80 104
p 80 107
p 80 112
p 80 128
p 80 130
p 80 134
p 80 141
p 80 157
p 80 160
p 80 169
p 80 179
p 80 193
p 80 194
p 81 84
p 81 85
p 81 89
p 81 98
p 81 99
p 81 106
p 81 152
p 81 162
p 81 166
p 81 171
p 81 173
p 81 174
p 81 176
p 81 179
p 81 187
p 81 189
p 81 191
p 82 89
p 82 102
p 82 118
p 82 119
p 82 128
p 82 131
p 82 132
p 82 135
p 82 148
p 82 152
p 82 160
p 82 162
p 82 167
p 82 176
p 82 183
p 82 190
p 82 196
p 83 88
p 83 103
p 83 106
p 83 116
p 83 119
p 83 123
p 83 131
p 83 139
p 83 142
p 83 180
p 83 183
p 83 186
p 83 188
p 83 195
p 83 199
p 84 100
p 84 107
p 84 116
p 84 120
p 84 122
p 84 126
p 84 127
p 84 143
p 84 146
p 84 151
p 84 165
p 84 190
p 85 86
p 85 99
p 85 122
p 85 131
p 85 146
p 85 160
p 85 164
p 85 170
p 85 178
p 85 182
p 86 102
p 86 108
p 86 110
p 86 119
p 86 120
p 86 126
p 86 129
p 86 132
p 86 134
p 86 148
p 86 152
p 86 174
p 86 175
p 86 199
p 87 90
p 87 92
p 87 97
p 87 99
p 87 153
p 87 154
p 87 156
p 87 158
p 87 168
p 87 170
p 87 185
p 87 186
p 88 94
p 88 111
p 88 112
p 88 116
p 88 118
p 88 124
p 88 142
p 88 149
p 88 186
p 88 189
p 88 195
p 88 196
p 89 109
p 89 127
p 89 128
p 89 146
p 89 151
p 89 155
p 89 156
p 89 170
p 89 178
p 90 101
p 90 107
p 90 124
p 90 138
p 90 160
p 90 162
p 90 173
p 90 174
p 90 176
p 90 189
p 90 194
p 90 196
p 91 94
p 91 99
p 91 115
p 91 120
p 91 143
p 91 151
p 91 159
p 91 181
p 91 183
p 91 198
p 92 101
p 92 108
p 92 113
p 92 124
p 92 130
p 92 139
p 92 140
p 92 148
p 92 149
p 92 150
p 92 155
p 92 158
p 92 159
p 92 169
p 92 174
p 92 183
p 92 193
p 93 102
p 93 103
p 93 124
p 93 157
p 93 161
p 93 166
p 93 188
p 94 96
p 94 125
p 94 133
p 94 155
p 94 175
p 94 183
p 94 194
p 95 98
p 95 101
p 95 102
p 95 112
p 95 118
p 95 119
p 95 132
p 95 134
p 95 165
p 95 189
p 96 105
p 96 115
p 96 119
p 96 140
p 96 177
p 96 178
p 96 188
p 97 106
p 97 117
p 97 121
p 97 132
p 97 147
p 97 149
p 97 151
p 97 160
p 97 164
p 97 174
p 97 189
p 97 193
p 98 107
p 98 132
p 98 138
p 98 150
p 98 170
p 98 182
p 98 192
p 98 194
p 98 200
p 99 108
p 99 110
p 99 113
p 99 117
p 99 119
p 99 129
p 99 130
p 99 134
p 99 139
p 99 150
p 99 162
p 99 166
p 99 171
p 99 185
p 99 187
p 99 199
p 100 104
p 100 106
p 100 118
p 100 121
p 100 130
p 100 135
p 100 137
p 100 139
p 100 145
p 100 157
p 100 169
p 100 185
p 100 200
p 101 121
p 101 125
p 101 127
p 101 144
p 101 145
p 101 151
p 101 156
p 101 163
p 101 166
p 101 168
p 102 145
p 102 156
p 102 169
p 102 170
p 102 182
p 102 193
p 102 200
p 103 115
p 103 120
p 103 147
p 103 162
p 103 164
p 103 178
p 103 180
p 103 181
p 103 187
p 103 188
p 104 106
p 104 133
p 104 191
p 104 192
p 104 198
p 105 107
p 105 109
p 105 135
p 105 149
p 105 154
p 105 156
p 105 181
p 105 182
p 105 196
p 106 109
p 106 115
p 106 127
p 106 133
p 106 178
p 106 191
p 106 192
p 106 194
p 107 149
p 107 150
p 107 176
p 107 180
p 107 194
p 108 115
p 108 141
p 108 142
p 108 143
p 108 148
p 108 152
p 108 155
p 108 164
p 108 177
p 108 200
p 109 113
p 109 117
p 109 127
p 109 130
p 109 134
p 109 138
p 109 140
p 109 157
p 109 163
p 109 165
p 109 196
p 110 118
p 110 137
p 110 147
p 110 154
p 110 156
p 110 168
p 110 178
p 110 187
p 110 189
p 110 192
p 111 154
p 111 158
p 111 164
p 111 167
p 111 172
p 112 114
p 112 123
p 112 125
p 112 133
p 112 142
p 112 147
p 112 158
p 112 159
p 112 187
p 113 122
p 113 127
p 113 129
p 113 133
p 113 145
p 113 163
p 113 170
p 113 171
p 113 173
p 113 178
p 113 182
p 113 186
p 113 187
p 114 123
p 114 137
p 114 146
p 114 147
p 114 159
p 114 163
p 114 200
p 115 117
p 115 118
p 115 129
p 115 138
p 115 148
p 115 149
p 115 161
p 115 165
p 115 177
p 115 178
p 115 185
p 115 189
p 115 199
p 116 129
p 116 134
p 116 138
p 116 142
p 116 157
p 116 161
p 116 180
p 116 183
p 116 185
p 116 186
p 116 189
p 117 136
p 117 154
p 117 182
p 117 194
p 118 137
p 118 156
p 118 167
p 118 175
p 118 189
p 118 192
p 118 200
p 119 122
p 119 127
p 119 134
p 119 161
p 119 164
p 119 172
p 119 182
p 120 123
p 120 134
p 120 138
p 120 165
p 120 175
p 120 176
p 120 183
p 120 193
p 121 125
p 121 144
p 121 154
p 121 166
p 121 167
p 121 171
p 121 190
p 121 192
p 122 125
p 122 129
p 122 130
p 122 141
p 122 143
p 122 152
p 122 169
p 122 188
p 122 196
p 123 125
p 123 142
p 123 145
p 123 163
p 123 171
p 123 172
p 123 177
p 123 187
p 123 192
p 123 197
p 123 198
p 124 125
p 124 139
p 124 146
p 124 151
p 124 153
p 124 154
p 124 157
p 124 159
p 124 178
p 124 192
p 124 195
p 125 126
p 125 128
p 125 129
p 125 143
p 125 152
p 125 157
p 125 166
p 125 185
p 125 188
p 126 127
p 126 165
p 126 168
p 126 175
p 126 190
p 127 130
p 127 163
p 127 166
p 127 180
p 127 183
p 127 193
p 127 199
p 128 142
p 128 159
p 128 164
p 128 171
p 128 190
p 128 200
p 129 133
p 129 146
p 129 153
p 129 173
p 129 175
p 129 178
p 129 181
p 130 176
p 131 137
p 131 153
p 131 154
p 131 156
p 131 160
p 131 163
p 131 168
p 131 172
p 131 175
p 131 186
p 132 138
p 132 146
p 132 150
p 132 151
p 132 154
p 132 155
p 132 170
p 132 171
p 132 172
p 132 178
p 132 200
p 133 139
p 133 141
p 133 144
p 133 166
p 133 183
p 133 188
p 133 192
p 133 198
p 134 156
p 134 158
p 134 161
p 134 170
p 134 175
p 134 177
p 134 181
p 134 182
p 135 143
p 135 149
p 135 181
p 135 192
p 135 196
p 135 197
p 136 154
p 136 159
p 136 164
p 136 170
p 136 192
p 137 139
p 137 140
p 137 145
p 137 166
p 137 195
p 137 196
p 137 200
p 138 150
p 138 154
p 138 155
p 138 158
p 138 164
p 138 170
p 139 155
p 139 157
p 139 170
p 139 195
p 140 143
p 140 158
p 140 171
p 140 179
p 140 197
p 140 200
p 141 148
p 141 151
p 141 152
p 141 181
p 142 150
p 142 176
p 142 180
p 142 186
p 143 150
p 143 152
p 143 161
p 143 169
p 143 180
p 143 196
p 144 146
p 144 147
p 144 166
p 144 172
p 144 177
p 145 148
p 145 149
p 145 157
p 145 169
p 145 179
p 145 188
p 145 189
p 145 200
p 146 149
p 146 170
p 146 180
p 146 182
p 146 183
p 147 149
p 147 150
p 147 151
p 147 157
p 147 160
p 147 164
p 147 166
p 147 176
p 147 180
p 147 183
p 148 152
p 148 171
p 148 181
p 148 182
p 148 192
p 149 155
p 149 158
p 149 171
p 149 196
p 150 154
p 150 163
p 150 190
p 151 164
p 151 166
p 151 174
p 151 191
p 152 158
p 152 159
p 152 175
p 152 177
p 152 182
p 152 186
p 152 197
p 153 165
p 153 168
p 153 174
p 153 181
p 153 183
p 154 156
p 154 162
p 154 183
p 154 195
p 155 157
p 155 158
p 155 159
p 155 183
p 155 195
p 156 173
p 156 180
p 156 188
p 156 196
p 157 177
p 157 195
p 158 159
p 158 161
p 159 185
p 159 193
p 160 186
p 161 168
p 161 170
p 161 172
p 161 192
p 161 194
p 162 168
p 162 172
p 162 180
p 162 181
p 162 182
p 162 186
p 162 188
p 162 198
p 163 173
p 163 183
p 163 184
p 163 185
p 163 195
p 163 199
p 164 184
p 165 168
p 165 171
p 165 172
p 165 187
p 165 198
p 165 200
p 166 177
p 166 182
p 166 190
p 166 192
p 167 179
p 167 184
p 167 190
p 167 195
p 167 199
p 168 176
p 168 181
p 168 183
p 168 184
p 168 188
p 168 195
p 169 171
p 169 175
p 169 186
p 169 190
p 169 193
p 170 173
p 170 182
p 170 191
p 170 196
p 170 199
p 171 180
p 171 187
p 171 189
p 171 195
p 171 199
p 172 193
p 174 194
p 174 198
p 174 199
p 175 191
p 175 195
p 175 199
p 176 181
p 176 190
p 176 198
p 177 178
p 177 183
p 178 191
p 179 182
p 179 197
p 180 188
p 180 197
p 181 183
p 182 183
p 182 189
p 183 198
p 184 187
p 184 192
p 185 187
p 185 198
p 186 199
p 187 191
p 187 193
p 188 190
p 188 192
p 188 194
p 189 194
p 191 197
p 192 193
p 192 196
p 192 198
p 192 199
p 199 200
